Route #1: 2 21 22 4 25 
Route #2: 33 29 3 50 
Route #3: 45 47 7 10 32 
Route #4: 27 31 30 9 34 35 
Route #5: 42 15 38 43 13 
Route #6: 28 12 40 20 1 
Route #7: 39 23 41 26 24 
Route #8: 14 44 16 6 37 
Route #9: 5 18 8 46 17 
Route #10: 36 11 19 49 48 
Objective: 84517.1
